
Gurobi 11.0.1 (win64) logging started Mon Apr  1 12:48:12 2024

Set parameter LogFile to value "C:\Projetos\Job_Rotation_Algorithms\Outputs\GurobiLogs\gurobi_log-output-3_ton-c150-BorbaRittModel-NoExtraConstraint-2.log"
Gurobi Optimizer version 11.0.1 build v11.0.1rc0 (win64 - Windows 10.0 (19045.2))

CPU model: 11th Gen Intel(R) Core(TM) i7-1165G7 @ 2.80GHz, instruction set [SSE2|AVX|AVX2|AVX512]
Thread count: 4 physical cores, 8 logical processors, using up to 1 threads


Gurobi 11.0.1 (win64) logging started Mon Apr  1 21:36:02 2024

Set parameter LogFile to value "C:\Projetos\Job_Rotation_Algorithms\Outputs\GurobiLogs\gurobi_log-output-3_ton-c150-BorbaRittModel-NoExtraConstraint-2.log"
Gurobi Optimizer version 11.0.1 build v11.0.1rc0 (win64 - Windows 10.0 (19045.2))

CPU model: 11th Gen Intel(R) Core(TM) i7-1165G7 @ 2.80GHz, instruction set [SSE2|AVX|AVX2|AVX512]
Thread count: 4 physical cores, 8 logical processors, using up to 1 threads


Gurobi 11.0.1 (win64) logging started Thu Apr  4 23:33:33 2024

Set parameter LogFile to value "C:\Projetos\Job_Rotation_Algorithms\Outputs\GurobiLogs\gurobi_log-output-3_ton-c150-BorbaRittModel-NoExtraConstraint-2.log"
Gurobi Optimizer version 11.0.1 build v11.0.1rc0 (win64 - Windows 10.0 (19045.2))

CPU model: 11th Gen Intel(R) Core(TM) i7-1165G7 @ 2.80GHz, instruction set [SSE2|AVX|AVX2|AVX512]
Thread count: 4 physical cores, 8 logical processors, using up to 1 threads


Gurobi 11.0.1 (win64) logging started Sat Apr  6 13:03:11 2024

Set parameter LogFile to value "C:\Projetos\Job_Rotation_Algorithms\Outputs\GurobiLogs\gurobi_log-output-3_ton-c150-BorbaRittModel-NoExtraConstraint-2.log"
Gurobi Optimizer version 11.0.1 build v11.0.1rc0 (win64 - Windows 10.0 (19045.2))

CPU model: 11th Gen Intel(R) Core(TM) i7-1165G7 @ 2.80GHz, instruction set [SSE2|AVX|AVX2|AVX512]
Thread count: 4 physical cores, 8 logical processors, using up to 1 threads


Gurobi 11.0.1 (win64) logging started Sun Apr  7 02:36:00 2024

Set parameter LogFile to value "C:\Projetos\Job_Rotation_Algorithms\Outputs\GurobiLogs\gurobi_log-output-3_ton-c150-BorbaRittModel-NoExtraConstraint-2.log"
Gurobi Optimizer version 11.0.1 build v11.0.1rc0 (win64 - Windows 10.0 (19045.2))

CPU model: 11th Gen Intel(R) Core(TM) i7-1165G7 @ 2.80GHz, instruction set [SSE2|AVX|AVX2|AVX512]
Thread count: 4 physical cores, 8 logical processors, using up to 1 threads


Gurobi 11.0.1 (win64) logging started Sun Apr  7 09:48:57 2024

Set parameter LogFile to value "C:\Projetos\Job_Rotation_Algorithms\Outputs\GurobiLogs\gurobi_log-output-3_ton-c150-BorbaRittModel-NoExtraConstraint-2.log"
Gurobi Optimizer version 11.0.1 build v11.0.1rc0 (win64 - Windows 10.0 (19045.2))

CPU model: 11th Gen Intel(R) Core(TM) i7-1165G7 @ 2.80GHz, instruction set [SSE2|AVX|AVX2|AVX512]
Thread count: 4 physical cores, 8 logical processors, using up to 1 threads


Gurobi 11.0.1 (win64) logging started Tue Apr  9 08:07:33 2024

Set parameter LogFile to value "C:\Projetos\Job_Rotation_Algorithms\Outputs\GurobiLogs\gurobi_log-output-3_ton-c150-BorbaRittModel-NoExtraConstraint-2.log"
Gurobi Optimizer version 11.0.1 build v11.0.1rc0 (win64 - Windows 10.0 (19045.2))

CPU model: 11th Gen Intel(R) Core(TM) i7-1165G7 @ 2.80GHz, instruction set [SSE2|AVX|AVX2|AVX512]
Thread count: 4 physical cores, 8 logical processors, using up to 1 threads


Gurobi 11.0.1 (win64) logging started Wed Apr 10 17:37:14 2024

Set parameter LogFile to value "C:\Projetos\Job_Rotation_Algorithms\Outputs\GurobiLogs\gurobi_log-output-3_ton-c150-BorbaRittModel-NoExtraConstraint-2.log"
Gurobi Optimizer version 11.0.1 build v11.0.1rc0 (win64 - Windows 10.0 (19045.2))

CPU model: 11th Gen Intel(R) Core(TM) i7-1165G7 @ 2.80GHz, instruction set [SSE2|AVX|AVX2|AVX512]
Thread count: 4 physical cores, 8 logical processors, using up to 1 threads


Gurobi 11.0.1 (win64) logging started Thu Apr 11 01:42:30 2024

Set parameter LogFile to value "C:\Projetos\Job_Rotation_Algorithms\Outputs\GurobiLogs\gurobi_log-output-3_ton-c150-BorbaRittModel-NoExtraConstraint-2.log"
Gurobi Optimizer version 11.0.1 build v11.0.1rc0 (win64 - Windows 10.0 (19045.2))

CPU model: 11th Gen Intel(R) Core(TM) i7-1165G7 @ 2.80GHz, instruction set [SSE2|AVX|AVX2|AVX512]
Thread count: 4 physical cores, 8 logical processors, using up to 1 threads


Gurobi 11.0.1 (win64) logging started Sun Apr 21 02:59:06 2024

Set parameter LogFile to value "C:\Projetos\Job_Rotation_Algorithms\Outputs\GurobiLogs\gurobi_log-output-3_ton-c150-BorbaRittModel-NoExtraConstraint-2.log"
Gurobi Optimizer version 11.0.1 build v11.0.1rc0 (win64 - Windows 10.0 (19045.2))

CPU model: 11th Gen Intel(R) Core(TM) i7-1165G7 @ 2.80GHz, instruction set [SSE2|AVX|AVX2|AVX512]
Thread count: 4 physical cores, 8 logical processors, using up to 1 threads


Gurobi 11.0.1 (win64) logging started Fri Apr 26 07:41:06 2024

Set parameter LogFile to value "C:\Projetos\Job_Rotation_Algorithms\Outputs\GurobiLogs\gurobi_log-output-3_ton-c150-BorbaRittModel-NoExtraConstraint-2.log"
Gurobi Optimizer version 11.0.1 build v11.0.1rc0 (win64 - Windows 10.0 (19045.2))

CPU model: 11th Gen Intel(R) Core(TM) i7-1165G7 @ 2.80GHz, instruction set [SSE2|AVX|AVX2|AVX512]
Thread count: 4 physical cores, 8 logical processors, using up to 1 threads


Gurobi 11.0.1 (win64) logging started Sat Apr 27 04:32:38 2024

Set parameter LogFile to value "C:\Projetos\Job_Rotation_Algorithms\Outputs\GurobiLogs\gurobi_log-output-3_ton-c150-BorbaRittModel-NoExtraConstraint-2.log"
Gurobi Optimizer version 11.0.1 build v11.0.1rc0 (win64 - Windows 10.0 (19045.2))

CPU model: 11th Gen Intel(R) Core(TM) i7-1165G7 @ 2.80GHz, instruction set [SSE2|AVX|AVX2|AVX512]
Thread count: 4 physical cores, 8 logical processors, using up to 1 threads


Gurobi 11.0.1 (win64) logging started Sat Apr 27 14:50:36 2024

Set parameter LogFile to value "C:\Projetos\Job_Rotation_Algorithms\Outputs\GurobiLogs\gurobi_log-output-3_ton-c150-BorbaRittModel-NoExtraConstraint-2.log"
Gurobi Optimizer version 11.0.1 build v11.0.1rc0 (win64 - Windows 10.0 (19045.2))

CPU model: 11th Gen Intel(R) Core(TM) i7-1165G7 @ 2.80GHz, instruction set [SSE2|AVX|AVX2|AVX512]
Thread count: 4 physical cores, 8 logical processors, using up to 1 threads


Gurobi 11.0.1 (win64) logging started Mon Apr 29 13:41:54 2024

Set parameter LogFile to value "C:\Projetos\Job_Rotation_Algorithms\Outputs\GurobiLogs\gurobi_log-output-3_ton-c150-BorbaRittModel-NoExtraConstraint-2.log"
Gurobi Optimizer version 11.0.1 build v11.0.1rc0 (win64 - Windows 10.0 (19045.2))

CPU model: 11th Gen Intel(R) Core(TM) i7-1165G7 @ 2.80GHz, instruction set [SSE2|AVX|AVX2|AVX512]
Thread count: 4 physical cores, 8 logical processors, using up to 1 threads

WLS license 901038 - registered to Bitka Analytics
Optimize a model with 14589 rows, 2072 columns and 45736 nonzeros
Model fingerprint: 0x26f97493
Variable types: 2 continuous, 2070 integer (2070 binary)
Coefficient statistics:
  Matrix range     [1e+00, 2e+02]
  Objective range  [1e+00, 1e+00]
  Bounds range     [1e+00, 3e+02]
  RHS range        [1e+00, 3e+02]
Presolve removed 1 rows and 1 columns
Presolve time: 0.10s
Presolved: 14588 rows, 2071 columns, 45734 nonzeros
Variable types: 0 continuous, 2071 integer (2070 binary)
Root relaxation presolved: 14588 rows, 2071 columns, 45734 nonzeros


Root relaxation: objective 1.400000e+02, 2888 iterations, 0.40 seconds (0.36 work units)

    Nodes    |    Current Node    |     Objective Bounds      |     Work
 Expl Unexpl |  Obj  Depth IntInf | Incumbent    BestBd   Gap | It/Node Time

     0     0  140.00000    0  307          -  140.00000      -     -    2s
     0     0  140.00000    0  511          -  140.00000      -     -    3s
     0     0  140.00000    0  494          -  140.00000      -     -    3s
     0     0  140.00000    0  483          -  140.00000      -     -    5s
     0     0  140.00000    0  464          -  140.00000      -     -    5s
     0     0  140.00000    0  453          -  140.00000      -     -    7s
     0     0  140.00000    0  438          -  140.00000      -     -    7s
     0     0  140.00000    0  448          -  140.00000      -     -    8s
     0     0  140.00000    0  430          -  140.00000      -     -    8s
     0     0  140.00000    0  467          -  140.00000      -     -    9s
     0     0  140.00000    0  422          -  140.00000      -     -   10s
     0     0  140.00000    0  226          -  140.00000      -     -   11s
     0     0  140.00000    0  294          -  140.00000      -     -   11s
     0     0  140.00000    0  187          -  140.00000      -     -   12s
     0     0  140.00000    0  204          -  140.00000      -     -   12s
     0     0  140.00000    0  379          -  140.00000      -     -   14s
     0     0  140.00000    0  379          -  140.00000      -     -   14s
     0     2  140.00000    0  266          -  140.00000      -     -   17s
    67    69  140.00000   44  295          -  140.00000      -   238   20s
   260   221  140.00000   51  361          -  140.00000      -   163   25s
   503   397  140.00000   32  331          -  140.00000      -   133   30s
   600   463  140.00000   30  438          -  140.00000      -   132   37s
   602   464  140.00000   12  332          -  140.00000      -   131   40s
   607   468  140.00000   46  464          -  140.00000      -   130   45s
   611   470  140.00000   61  378          -  140.00000      -   129   50s
   617   474  140.00000   29  404          -  140.00000      -   128   55s
   621   479  140.00000   15  154          -  140.00000      -   115   60s
   640   492  140.00000   24  395          -  140.00000      -   118   65s
   753   549  140.00000   29  221          -  140.00000      -   129   70s
   844   592  139.00000   75  318          -  140.00000      -   141   75s
   989   642  140.00000   44  283          -  140.00000      -   153   80s
  1120   698  140.00000   31  417          -  140.00000      -   165   85s
  1255   752  140.00000   70  138          -  140.00000      -   171   93s
  1289   754  140.00000   43  322          -  140.00000      -   174   95s
  1410   793  140.00000   36  168          -  140.00000      -   183  100s
  1550   812  140.00000   72  281          -  140.00000      -   190  105s
  1648   842  140.00000   68  293          -  140.00000      -   200  110s
  1727   864 infeasible   75               -  140.00000      -   213  115s
  1817   892  140.00000   64  342          -  140.00000      -   222  120s
  1968   941  140.00000   43  304          -  140.00000      -   227  125s
  2072   990  140.00000   44  282          -  140.00000      -   236  130s
  2232  1112 infeasible   72               -  140.00000      -   233  135s
  2356  1172 infeasible   91               -  140.00000      -   238  140s
  2506  1278  140.00000   69  298          -  140.00000      -   240  145s
  2647  1357  140.00000   49  221          -  140.00000      -   246  150s
  2779  1435  140.00000   28  178          -  140.00000      -   249  155s
  3004  1574  140.00000   43  248          -  140.00000      -   245  164s
  3043  1603  140.00000   60  367          -  140.00000      -   244  165s
  3190  1720 infeasible   83               -  140.00000      -   248  170s
  3389  1857  140.00000   33  326          -  140.00000      -   248  175s
  3579  1995  140.00000   37  458          -  140.00000      -   247  180s
  3748  2102  140.00000   93  221          -  140.00000      -   249  185s
  3899  2175  139.00000   62  274          -  140.00000      -   253  190s
  4005  2217 infeasible   39               -  140.00000      -   257  195s
  4135  2283  140.00000   27  238          -  140.00000      -   261  200s
  4313  2385  140.00000   35  341          -  140.00000      -   258  205s
  4436  2466 infeasible   78               -  140.00000      -   261  210s
  4557  2557  140.00000   41  253          -  140.00000      -   263  215s
  4667  2631  140.00000   47  255          -  140.00000      -   266  220s
  4830  2720 infeasible   62               -  140.00000      -   268  225s
  5004  2814  140.00000   63  244          -  140.00000      -   269  230s
  5141  2897  140.00000   46  420          -  140.00000      -   271  235s
  5324  3010  140.00000   39  354          -  140.00000      -   272  240s
  5487  3125 infeasible   73               -  140.00000      -   274  245s
  5529  3143  140.00000   40  336          -  140.00000      -   275  251s
  5643  3221 infeasible   40               -  140.00000      -   276  255s
  5834  3338  140.00000   42  362          -  140.00000      -   276  260s
  5959  3399 infeasible   67               -  140.00000      -   277  265s
  6119  3491  140.00000   48  375          -  140.00000      -   277  270s
  6323  3615  140.00000   60  417          -  140.00000      -   276  275s
  6439  3679 infeasible   66               -  140.00000      -   279  280s
  6600  3788  140.00000   79  257          -  140.00000      -   279  285s
  6739  3879  138.00000   99  204          -  140.00000      -   282  290s
  6914  3988  140.00000   61  212          -  140.00000      -   282  295s
  7122  4100  140.00000   67  205          -  140.00000      -   281  300s
  7311  4207  140.00000   68  204          -  140.00000      -   282  305s
  7507  4309  140.00000   86  274          -  140.00000      -   283  310s
  7751  4429  140.00000   72  256          -  140.00000      -   282  315s
  7948  4516  140.00000   71  184          -  140.00000      -   282  320s
  8193  4627  140.00000   84  195          -  140.00000      -   282  325s
  8399  4691  140.00000   87  322          -  140.00000      -   282  330s
  8557  4729  140.00000   78  178          -  140.00000      -   282  335s
  8709  4809 infeasible   92               -  140.00000      -   283  340s
  8786  4862  140.00000   72  176          -  140.00000      -   282  347s
  8906  4918  140.00000   91  197          -  140.00000      -   282  350s
  9069  4987 infeasible   82               -  140.00000      -   282  355s
  9234  5064  140.00000   66  125          -  140.00000      -   282  360s
  9475  5189  140.00000   78  265          -  140.00000      -   281  365s
  9672  5272 infeasible  100               -  140.00000      -   282  370s
  9907  5293 infeasible  102               -  140.00000      -   281  375s
 10125  5365  140.00000   99  306          -  140.00000      -   282  380s
 10202  5390  140.00000   99  230          -  140.00000      -   282  460s
 10374  5482  140.00000   83  220          -  140.00000      -   283  465s
 10636  5600 infeasible   68               -  140.00000      -   281  470s
 10818  5702  140.00000   68  433          -  140.00000      -   282  475s
 10966  5800  140.00000   81  312          -  140.00000      -   284  480s
 11114  5858 infeasible   88               -  140.00000      -   285  485s
 11284  5952  140.00000   88  294          -  140.00000      -   285  490s
 11407  6017 infeasible   92               -  140.00000      -   287  495s
 11558  6072  140.00000   94  251          -  140.00000      -   288  500s
 11733  6153  140.00000   85  248          -  140.00000      -   288  505s
 11859  6195 infeasible   94               -  140.00000      -   290  510s
 12014  6244  140.00000   92  218          -  140.00000      -   292  515s
 12202  6292  140.00000   86  280          -  140.00000      -   293  520s
 12328  6344  140.00000   96  184          -  140.00000      -   294  525s
 12448  6372 infeasible  113               -  140.00000      -   296  530s
 12490  6394  140.00000  100  243          -  140.00000      -   296  538s
 12537  6417 infeasible   98               -  140.00000      -   296  540s
 12660  6448  140.00000  102  235          -  140.00000      -   298  545s
 12832  6486 infeasible  105               -  140.00000      -   299  550s
 12981  6501  140.00000  109  214          -  140.00000      -   301  555s
 13125  6557  140.00000  102  236          -  140.00000      -   303  560s
 13265  6603  140.00000   89  289          -  140.00000      -   304  565s
 13360  6634  140.00000   88  199          -  140.00000      -   306  570s
 13462  6660  140.00000  101  220          -  140.00000      -   307  575s
 13582  6680 infeasible  105               -  140.00000      -   308  580s
 13722  6698 infeasible   87               -  140.00000      -   310  585s
 13847  6733  140.00000   89  245          -  140.00000      -   311  590s
 14001  6799  140.00000   99  149          -  140.00000      -   312  595s
 14109  6833  140.00000   97  213          -  140.00000      -   313  600s
 14237  6865  140.00000   93  187          -  140.00000      -   315  605s
 14361  6939  140.00000   80  304          -  140.00000      -   316  610s
 14507  7017 infeasible  103               -  140.00000      -   317  615s
 14641  7063  140.00000   95  262          -  140.00000      -   318  620s
 14756  7098 infeasible   89               -  140.00000      -   320  625s
 14922  7156  140.00000   85  186          -  140.00000      -   320  630s
 15081  7207 infeasible   85               -  140.00000      -   321  635s
 15220  7246  140.00000  102  254          -  140.00000      -   322  640s
 15352  7252  140.00000   73  255          -  140.00000      -   322  645s
 15496  7300 infeasible   85               -  140.00000      -   323  650s
 15650  7386  140.00000   72  309          -  140.00000      -   323  655s
 15741  7415  140.00000   78  315          -  140.00000      -   324  663s
 15774  7432 infeasible   94               -  140.00000      -   323  665s
 15995  7561  140.00000   73  178          -  140.00000      -   322  670s
 16137  7651  140.00000   84  282          -  140.00000      -   323  675s
 16300  7742 infeasible   78               -  140.00000      -   323  680s
 16459  7809  140.00000   74  350          -  140.00000      -   323  685s
 16613  7887  140.00000   81  297          -  140.00000      -   323  690s
 16768  7982  140.00000   89  168          -  140.00000      -   323  695s
 16973  8055 infeasible   93               -  140.00000      -   323  700s
 17128  8084  140.00000   75  298          -  140.00000      -   323  705s
 17254  8126  140.00000   96  320          -  140.00000      -   324  710s
 17418  8190  140.00000   87  284          -  140.00000      -   325  715s
 17597  8231 infeasible   99               -  140.00000      -   325  720s
 17780  8296  140.00000   96   67          -  140.00000      -   325  725s
*17827  8178             108     139.0000000  140.00000  0.72%   325  725s
 17833  8178  140.00000   43  217  139.00000  140.00000  0.72%   325  730s
 17838  8181  140.00000   39  212  139.00000  140.00000  0.72%   325  736s
 17843  8184  140.00000   56  269  139.00000  140.00000  0.72%   325  740s
 17848  8188  140.00000   61  215  139.00000  140.00000  0.72%   324  745s
 17869  8204  140.00000   34  253  139.00000  140.00000  0.72%   329  750s
H17904  7769                     140.0000000  140.00000  0.00%   328  752s

Cutting planes:
  Cover: 1
  Flow cover: 1
  Zero half: 5
  RLT: 29
  BQP: 27

Explored 17905 nodes (6018354 simplex iterations) in 752.07 seconds (865.19 work units)
Thread count was 1 (of 8 available processors)

Solution count 2: 140 139 

Optimal solution found (tolerance 1.00e-03)
Best objective 1.400000000000e+02, best bound 1.400000000000e+02, gap 0.0000%
